% Wedding Seat Assignment Data File.
%Evaluation (0 = Utilitarian, 1 = Egalitarian)
Evaluation = 1;

%Number of Tables
nTables = 4;

%Number of Seats per Table:
nSeats = 5;

%Number of Guests:
nGuests = 20;

nGroups = 7;
%Groups that Must be seated together
Groups = [
{1,3,17},
{5,6},
{8,19},
{4,10},
{12,13},
{19,11},
{16,7}
];

%Pref Weight
PrefWeight = 3;
%Preference Graph: Row i is the person that Guest i would like to sit with.
%There must be as many rows as nGuests.
Pref = [
{2,3,17},
{11,6,19},
{1,4},
{10,17},
{6,13},  
{5,12},
{1,8,16},
{7,19},
{4,14,18},
{4,17},
{12,3,19},
{7,6,13},
{12,4},
{11,9},
{2,9},  
{2,7},
{1,18,9},
{7,14},
{4,11},
{5,8,9}
];

%Troublemakers
Trouble = {1,11,9};